
;this file is automatically generated: Mon Feb 10 17:02:04 CST 2020

;declarations generated

(declare-fun oclExcludes ( Int Int) Bool)
(declare-fun Cardinality ( Int) Int)
(declare-fun type_5539a168_7357_4524_b15b_d9b57b0cbd27_Class13 ( Int) Bool)
(declare-fun class13_Class13BoolAttr1 ( Int) Bool)
(declare-fun class13_Class13BoolAttr0 ( Int) Bool)
(declare-fun oclSelect ( Int Bool) Int)
(declare-fun obj_2521d5e9_2a6f_4c6f_84d2_dfbea39ab41d ( Int) Int)
(declare-fun Enum0 ( Int) Int)
(declare-fun Enum1 ( Int) Int)
(declare-fun container_ ( Int) Int)
(declare-fun oclIncludes ( Int Int) Bool)
(declare-fun ObjAt ( Int Int) Int)

;formula(s) generated
(assert (! (or (forall ((v Int)) (=> ( type_5539a168_7357_4524_b15b_d9b57b0cbd27_Class13 v )  ( class13_Class13BoolAttr0 ( obj_2521d5e9_2a6f_4c6f_84d2_dfbea39ab41d v )  ) )) (forall ((v Int)) (=> ( type_5539a168_7357_4524_b15b_d9b57b0cbd27_Class13 v )  ( class13_Class13BoolAttr1 ( obj_2521d5e9_2a6f_4c6f_84d2_dfbea39ab41d v )  ) ))):named l0))
(assert (exists ((o Int)) ( type_5539a168_7357_4524_b15b_d9b57b0cbd27_Class13 ( obj_2521d5e9_2a6f_4c6f_84d2_dfbea39ab41d o )  ) ))

 ;end of formula 